problems/csplib-prob056/sonet-models/noch/O2/lingeling/model_3_1-s1ring07-solution000001.solution
language Essence 1.3

letting network be mset({1, 5, 6, 7}, {2, 5}, {2, 5}, {3, 4, 5, 6})
$ Here is a simple "visualisation" for the value above.
$ 1 5 6 7
$ 2 5
$ 2 5
$ 3 4 5 6

